50, 6758
231, 147
54, 49
99, 63
330, 210
297, 189
231, 147
378, 343
324, 294
231, 147
432, 392
132, 84
297, 189
432, 392
432, 392
216, 196
270, 245
297, 189
66, 42
330, 210
231, 147
198, 126
216, 196
324, 294
378, 343
486, 441
231, 147
486, 441
540, 490
264, 168
486, 441
99, 63
486, 441
54, 49
165, 105
162, 147
297, 189
231, 147
264, 168
486, 441
324, 294
132, 84
198, 126
66, 42
231, 147
54, 49
216, 196
297, 189
270, 245
378, 343
324, 294
